40 40 40
50
33 20 21
35 28 26
2 3 20
33 11 9
22 4 35
20 1 33
22 12 2
14 23 23
16 13 33
28 32 31
10 18 16
2 15 27
21 33 10
35 10 21
28 2 22
11 22 32
33 13 14
3 14 17
25 24 10
28 30 19
30 6 11
3 33 8
6 29 19
13 14 9
25 26 6
19 25 5
25 17 11
9 6 8
11 29 26
8 32 11
10 21 17
12 5 5
4 8 29
22 18 31
4 11 28
35 1 22
6 3 19
15 23 20
4 18 1
32 9 31
18 27 8
18 27 32
11 4 10
9 13 31
23 22 23
13 6 16
12 4 29
21 24 34
6 31 9
16 6 26
